JohnStossel	726222068241424384	2016-04-30T01:30:08	Watching me on FoxBusiness?My TV Special, “Winning the Presidency” starts at 10pm.
JohnStossel	726213232533213185	2016-04-30T00:55:01	Ready for FreedomFriday? 5 more minutes until two full STOSSEL hours on FoxBusiness!
JohnStossel	726200400672493568	2016-04-30T00:04:02	Tonight’s STOSSEL is gonna be “YUGE”! We are reairing “The Art of Trump” at 9pm, then my special “Winning the Presidency” on FoxBusiness.
JohnStossel	726184547818176512	2016-04-29T23:01:02	There are SOME things realDonaldTrump gets right. I list them on “The Art of Trump” tonight at 9pm on FoxBusiness.
JohnStossel	726139023857582080	2016-04-29T20:00:08	.realDonaldTrump will “Make America Great?” This is magical thinking. “The Art of Trump” airs tonight, 9pm on FoxBusiness.
JohnStossel	725794151661334529	2016-04-28T21:09:45	"Nobody knows the system better than me,” says realDonaldTrump. He IS better than gov’t at building ice rinks. 
JohnStossel	725400391290998784	2016-04-27T19:05:05	Donald Trump’s book, "The Art of the Deal" reveals much. “The Art of Trump” airs Friday at 9pm on FoxBusiness. 
JohnStossel	725345529249452032	2016-04-27T15:27:05	The proper and limited use of government is to invoke a common justice and keep the peace – and that is all.  – Leonard Read
JohnStossel	725333948046282752	2016-04-27T14:41:03	Last week's column on my lung surgery struck a nerve. Many of you wished me well. Others said I deserve to die. 
JohnStossel	725026706839339008	2016-04-26T18:20:11	Depressing: Clinton overwhelming favorite to be Pres. 72% chance...was 50% earlier in year.  
JohnStossel	724984628952489984	2016-04-26T15:32:59	.RealDonaldTrump will sweep every state tonight, says . 97%+ chance in each. Elections2016
JohnStossel	724983131627872257	2016-04-26T15:27:02	Government does not solve problems; it subsidizes them. – Ronald Reagan
JohnStossel	724620491923685376	2016-04-25T15:26:02	Profit is a signal that valuable services are being rendered to people on a voluntary basis. – Lew Rockwell
JohnStossel	724598874510217216	2016-04-25T14:00:08	Confused by libertarians? ToddSeavey's short new book explains aspects that bewilder ME: 
JohnStossel	724258112589336576	2016-04-24T15:26:04	A free market…makes monopolies impossible.  – Ayn Rand
JohnStossel	723685349038280705	2016-04-23T01:30:07	Watching the StosselForum on FoxBusiness? Part 2, with oreillyfactor's obnoxious question about drugs, is next!
JohnStossel	723676537279504386	2016-04-23T00:55:06	5 more minutes until the StosselForum airs in FULL on FoxBusiness  featuring analysis from KennedyNation and MattWelch.
JohnStossel	723662939874426880	2016-04-23T00:01:04	Finally! Presidential candidates to be ENTHUSIASTIC about! The StosselForum airs tonite, 9pm on FoxBusiness. 
JohnStossel	723647716471885824	2016-04-22T23:00:34	Haven’t had a chance to watch the Libertarians debate? The StosselForum airs tonight on FoxBusiness at 9 &amp; 10pm. 
JohnStossel	723625602364772352	2016-04-22T21:32:42	Not a fan of Trump or Hillary? Tonight the Libertarians debate on FoxBusiness at 9 and 10pm ET. 
JohnStossel	723603553294508032	2016-04-22T20:05:05	StosselForum debate among GovgaryJohnson officialmcafee and ap4lp airs tonight at 9 and 10pm on foxbusiness.
JohnStossel	723534378400276480	2016-04-22T15:30:13	Are you desperate for a 3rd choice this election season? BETTER options are on the StosselForum tonight, 9pm ET. 
JohnStossel	723210297792598016	2016-04-21T18:02:26	All these guys would be a better president than Hillary or Trump. StosselForum reairs on FoxBusiness Fri, 9 &amp; 10p 
JohnStossel	723166160443727872	2016-04-21T15:07:03	Love your country but fear its government. – N.E. folk wisdom
JohnStossel	722896397402439681	2016-04-20T21:15:06	NY man charged in plot to sell gun permits. Aha! If I’d paid a bribe, THEN I would have gotten a gun permit: 
JohnStossel	722872349075251201	2016-04-20T19:39:32	This week's STOSSEL is all about the StosselForum 
JohnStossel	722833865790783489	2016-04-20T17:06:37	Eddie_Muller fxnopinion not tobacco
JohnStossel	722803784276029440	2016-04-20T15:07:05	Every actual state is corrupt. Good men must not obey laws too well. – Ralph Waldo Emerson
JohnStossel	722783921931493376	2016-04-20T13:48:10	.JohnStossel: I have lung cancer. The medical care I've received is excellent but the customer service stinks | 
JohnStossel	722510046454632448	2016-04-19T19:39:53	.nytimes reporting Alexander Hamilton may stay on $10 bill. Does a woman belong on our currency? Our debate: 
JohnStossel	722441386390228995	2016-04-19T15:07:03	Underlying most arguments against the free market is a lack of belief in freedom itself. – Milton Friedman
JohnStossel	722146733686272000	2016-04-18T19:36:12	TaxDay is filled with special-interest giveaways. Throwback to when I explained how I got a FREE golf cart: 
JohnStossel	722078936771866625	2016-04-18T15:06:48	If Tyranny and Oppression come to this land, it will be in the guise of fighting a foreign enemy. – James Madison, 4th U.S. President
JohnStossel	721148673904619522	2016-04-16T01:30:16	Be impressed by young people at the sfliberty conference who GET it! “The Liberty Vote” airs 10pm on FoxBusiness 
JohnStossel	721140564071030785	2016-04-16T00:58:03	My newest special "The Tech Revolution" starts NOW on FoxBusiness. 
JohnStossel	721081432060264448	2016-04-15T21:03:05	.alexcory_: “Nerds are the new rockstars!” Time to celebrate the geeks who bring us life’s best innovations. 9pm ET 
JohnStossel	721052512900349952	2016-04-15T19:08:10	Don't miss WilsonWPA on JohnStossel 9pm ET tonight to discuss the tedcruz campaign data analytics. STOSSEL
JohnStossel	721050971413950465	2016-04-15T19:02:02	Betting odds are the best predictor of who will win any election. See more on my special tonight at 9p FoxBusiness 
JohnStossel	721002652746653696	2016-04-15T15:50:02	I want a government small enough to fit inside the Constitution. –Harry Browne
JohnStossel	720722587232264193	2016-04-14T21:17:09	Time Mag: Make America Solvent Again.   Agreed! Otherwise we’ll end up like Prichard, AL: 
JohnStossel	720661418253492224	2016-04-14T17:14:06	.tedcruz may be gaining in the betting odds bc he uses superior technology. More on my special, 9pm on FoxBusiness 
JohnStossel	720640019501699072	2016-04-14T15:49:04	The era of big government is over. – Bill Clinton, State of the Union Address, January 23, 1996
JohnStossel	720410713827577856	2016-04-14T00:37:53	Watch the whole episode of JohnStossel Tech Revolution, featuring hackingedusf this Friday on Fox Business Channel at 9pm EST FoxNews
JohnStossel	720298703685201920	2016-04-13T17:12:48	"The presidential race will be a choice between Trump and Clinton, Americans may give libertarianism a second look." 
JohnStossel	720257836740050945	2016-04-13T14:30:24	'Another Libertarian Moment?' by JohnStossel 
JohnStossel	720277627743838209	2016-04-13T15:49:03	The government solution to a problem is usually as bad as the problem. –Milton Friedman
JohnStossel	719972313815343105	2016-04-12T19:35:50	Today is EqualPayDay. WATCH TheBlazeHotList (Amy Holmes) bust the gender pay gap myth. 
JohnStossel	719944845456859137	2016-04-12T17:46:41	Technology is changing our world. More in my new special "The Tech Revolution" Friday at 9pm on FoxBusiness. 
JohnStossel	719915239018356737	2016-04-12T15:49:03	Abuse of power isn't limited to bad guys in other nations. It happens in our own country... –Clint Eastwood
JohnStossel	719604163999432704	2016-04-11T19:12:56	I tried the driverless car. Scary but cool! More from my special "The Tech Revolution" Fri on FoxBusiness, 9pm ET. 
JohnStossel	719552618373062656	2016-04-11T15:48:07	What pays under capitalism is satisfying the common man, the customer. The more people you satisfy, the better for you. –Ludwig von Mises
JohnStossel	719189973585428481	2016-04-10T15:47:06	No nation was ever ruined by trade.  –Benjamin Franklin
JohnStossel	718922453037088768	2016-04-09T22:04:04	Tonight 3 HOURS OF STOSSEL on foxbusiness! The two-part Libertarian debate, then “Breaking Up with Government” 
JohnStossel	718617248131387393	2016-04-09T01:51:17	Who do you prefer?
JohnStossel	718616937987747842	2016-04-09T01:50:03	Guess I should be happy.  Commercials pay me.
JohnStossel	718616857301905409	2016-04-09T01:49:44	Lotsa commercials.
JohnStossel	718615659157000196	2016-04-09T01:44:59	For adults, EVERYTHING  should be legal.  Hurting others is illegal. 
JohnStossel	718615217433878529	2016-04-09T01:43:13	falknereagle i"m sure a few have.  If you spend millions...
JohnStossel	718614807298056192	2016-04-09T01:41:35	Geraldo, why assume helping people requires a GOVT program?!
JohnStossel	718614209274245120	2016-04-09T01:39:13	AP4LP is right. Re drugs, Bill O is a pinhead.
JohnStossel	718613238351589376	2016-04-09T01:35:21	I say: for adults, sex work, gambling, drinking should be legal.  You own your body. What will the candidates say?
JohnStossel	718612126512857088	2016-04-09T01:30:56	McAfee: "What power do we have to approve the Keystone pipeline?"  Good point.
JohnStossel	718611932198993920	2016-04-09T01:30:10	Enjoying the Forum? Don’t change the channel…“Playing the Victim” is next. 
JohnStossel	718611887873728512	2016-04-09T01:29:59	EPA stands for Enough Protection Already!
JohnStossel	718611621149597697	2016-04-09T01:28:56	Gary:  A superfund site!  zzzzzzzz
JohnStossel	718611206488137728	2016-04-09T01:27:17	What? we don't need any EPA? I disagree.  They've gone too far, but we pollution is a job for govt.
JohnStossel	718610213088178176	2016-04-09T01:23:20	falknereagle thats a problem.
JohnStossel	718603090358706176	2016-04-09T00:55:02	5 more minutes until part 2 of StosselForum. The Libertarian debate continues! 
JohnStossel	718589306290352129	2016-04-09T00:00:16	Drugs, prostitution &amp; immigration! govgaryjohnson officialmcafee and ap4lp debate on the StosselForum at 9pm on foxbusiness.
JohnStossel	718574281093844992	2016-04-08T23:00:33	Wish last week’s StosselForum were an hour longer? Tonight on Part 2, candidates answer questions from other Fox hosts! 9pm on FoxBusiness
JohnStossel	718562851888082944	2016-04-08T22:15:08	.Kennedy and MattWelch say one candidate made “sweet love to the Constitution.” Which one? 9pm on FoxBusiness 
JohnStossel	718550465923964929	2016-04-08T21:25:55	Looking forward to the JohnStossel Libertarian Forum tonight. Sorry I missed the 1st part. How was it?
JohnStossel	718550259731816448	2016-04-08T21:25:06	Tonight I ask the candidates about legalizing prostitution. Here’s OfficialMcAfee’s very personal answer: 
JohnStossel	718529380759117824	2016-04-08T20:02:08	On Part 2 of the StosselForum oreillyfactor grills the candidates about their stances on drug legalization 
JohnStossel	718507870283829248	2016-04-08T18:36:40	Had enough of GOP &amp; Dems? See the “Libertarian Presidential Forum" with JohnStossel at 9 pm tonight. I got to ask a question! FoxBusiness
JohnStossel	718503209182998528	2016-04-08T18:18:08	Politicians brag about creating jobs. Not GovGaryJohnson! More tonight on StosselForum 
JohnStossel	718488728268705792	2016-04-08T17:20:36	RT:The_Swaff Part II of the Libertarian shakedown TONIGHT, Friday, April 8 @ 9pm FoxBusiness YES INDEED! 
JohnStossel	718404049167458304	2016-04-08T11:44:07	.JohnStossel previews Libertarian forum, reveals candidate's "surprise" answer &amp; who he finds "weird" 
JohnStossel	718455894527246341	2016-04-08T15:10:08	My definition of a free society is a society where it is safe to be unpopular.  – Adlai Stevenson
JohnStossel	718455127556788224	2016-04-08T15:07:05	I’d take any of the 3 leading Libertarian candidates over Trump or Hillary. So would our audience! More tnite at 9pm.
JohnStossel	718197242738311168	2016-04-07T22:02:20	Libertarian Debate Pt 2! GovgaryJohnson officialmcafee &amp; ap4lp fight tomorrow, 9pm on FoxBusiness. StosselForum 
JohnStossel	718157670583107584	2016-04-07T19:25:06	This week’s STOSSEL is all about the Libertarian presidential candidates StosselForum 
JohnStossel	718127978421432320	2016-04-07T17:27:06	The urge to save humanity is almost always a false face for the urge to rule it.  – H.L. Mencken
JohnStossel	718091038728978433	2016-04-07T15:00:19	.GovGaryJohnson “The majority of people in this country are libertarian. They just don't know it.” True? Fri, 9p ET 
JohnStossel	717878802827845636	2016-04-07T00:56:58	church1d I have been. Once. Frustrating experience
JohnStossel	717805939710042112	2016-04-06T20:07:26	How will 3 Libertarian presidential candidates answer Judgenap's question? Friday, 9pm on FoxBusiness. 
JohnStossel	717780442703749125	2016-04-06T18:26:07	When the people fear the government there is tyranny, when the government fears the people there is liberty.  – John Basil Barnhill
JohnStossel	717704856576733184	2016-04-06T13:25:46	If you're disappointed by Dems' &amp; Repubs' eagerness to limit your freedom, I urge you to check out the libertarians. 
JohnStossel	717393133852499969	2016-04-05T16:47:06	Almost half of you on Twitter said AP4LP won 1st round of StosselForum. Watch Fri, 9pm &amp; decide who won round 2! 
JohnStossel	716751214940184576	2016-04-03T22:16:20	This weekend, realDonaldTrump went below 50%! First time in months, at  
JohnStossel	716357513311088640	2016-04-02T20:11:55	Consider an alternative! Libertarian presidential candidates debate tonight, 6pm on FoxBusiness. StosselForum 
JohnStossel	716264696249094144	2016-04-02T14:03:05	
JohnStossel	716085276993523712	2016-04-02T02:10:08	stockmanalexp MichelleAudi It's one of my priorities.  But how much time would it take in this show to explain to audience WHY?
JohnStossel	716085043907702785	2016-04-02T02:09:13	Which candidate won the FIRST ROUND of StosselForum?
JohnStossel	716083751814569985	2016-04-02T02:04:05	Because I only have one new hour per Friday.  Can't wait? Practice delayed gratification. 
JohnStossel	716082854954926080	2016-04-02T02:00:31	: "What is a drug?  You're running for Pres, you tell me!" KennedyNation can be hilarious.
JohnStossel	716082131781488640	2016-04-02T01:57:39	IndpendentUSA No.
JohnStossel	716081752226271232	2016-04-02T01:56:08	nickgillespie JohnStossel A pleasant contrast from the major party debates, for sure.
JohnStossel	716081849215369216	2016-04-02T01:56:31	Good idea, Sean, How do people vote? 
JohnStossel	716081352769200128	2016-04-02T01:54:33	officialmcafee good on "equal" pay: "the employee decides... there's more than one business.  Work for somebody else." stosselforum
JohnStossel	716080418676731904	2016-04-02T01:50:50	McAfee: "as long as you grant me the right to a heterosexual marriage, then you may marry who or what you please."
JohnStossel	716079532097318912	2016-04-02T01:47:19	coming up.  Abortion.  Disagreement
JohnStossel	716079021189165056	2016-04-02T01:45:17	Good line from Peterson: "Government cannot stamp out bigotry."
JohnStossel	716078629655093248	2016-04-02T01:43:44	McAfee: No one is forcing you to buy anything or to choose one place over another! I agree with McAfee
JohnStossel	716078320123822080	2016-04-02T01:42:30	"Jewish baker should have to bake the cake for the Nazi wedding?"  JOHNSON:  "That would be my contention, yes."   Yikes.
JohnStossel	716078014988230660	2016-04-02T01:41:17	He is old enough to be President! 
JohnStossel	716077814555025408	2016-04-02T01:40:29	"Thomas Jefferson was 33 years old.  James Madison 25.  Lafayette 18 and Alexander Hamilton 18."  Good AP4LP answer to my rude question!
JohnStossel	716077373461028864	2016-04-02T01:38:44	McAfee gave a believable answer to a nasty question.
JohnStossel	716077087174615041	2016-04-02T01:37:36	what? a kiss?
JohnStossel	716076995847782400	2016-04-02T01:37:14	GovGaryJohnson:"legalizing marijuana will lead to less substance abuse because it is a safer alternative"  NOW he's come alive!
JohnStossel	716075941143773184	2016-04-02T01:33:03	STOSSEL viewers: don't change the channel. My show "Political Promises" airs after this. I list the seasons 10 WORST political promises.
JohnStossel	716075725510615040	2016-04-02T01:32:11	clemsonpanther we'll get to that.
JohnStossel	716075654689775616	2016-04-02T01:31:54	.joseph_laurieb Let more people in legally.
JohnStossel	716075563862134784	2016-04-02T01:31:33	.Huntertwitts Ignore it.  It's no worse than ours.  It will self-correct.
JohnStossel	716075235691388929	2016-04-02T01:30:14	StosselForum AP4LP "if I had the power, I would cut off every penny of foreign aid."   Good.  Clear. Libertarian.
JohnStossel	716073649422352384	2016-04-02T01:23:56	JohnStossel Ok, whew, Johnson got better.
JohnStossel	716072881831157760	2016-04-02T01:20:53	Peterson: I would cut them all. They had not right to take it from us in the first place!
JohnStossel	716072298411900928	2016-04-02T01:18:34	Johnson: 20% reduction in spending. You must include entitlements.
JohnStossel	716071549560864772	2016-04-02T01:15:36	.ServissJ LPNational   All are pro-choice and anti US dept of Ed.  No news there.
JohnStossel	716071385517400065	2016-04-02T01:14:56	.MichelleAudi No. Too much "in the weeds" This is people's introduction to libertarians.
JohnStossel	716071224074481664	2016-04-02T01:14:18	douglaskphoto No.  Too inside libertarian for now
JohnStossel	716071078280478720	2016-04-02T01:13:43	IndpendentUSA I'll ask
JohnStossel	716070556219662336	2016-04-02T01:11:39	peterson: we should only go to war with a declaration of war.  The president should always obey "The Constitution."
JohnStossel	716070359787823104	2016-04-02T01:10:52	When is it right to go to war? Johnson: "When attacked."
JohnStossel	716070145899233281	2016-04-02T01:10:01	"it is not isolationism to say that we need to stop interfering in the affairs of foreign nations."  Wish Hilary said that.
JohnStossel	716068919467982850	2016-04-02T01:05:08	"Every law that limits individual freedom has failed...suffering thru punishment..."  Ok, McAfee, that's more like it!
JohnStossel	716068671932796929	2016-04-02T01:04:09	Who cares about your mountain climbing, Gary!
JohnStossel	716068539103358976	2016-04-02T01:03:38	"Vetoes..."  Ah, much better!
JohnStossel	716068211012333568	2016-04-02T01:02:20	"Well, uh, I'm Gary Johnson.  I would like everyone to know that I have a wonderful family.”  OMG! Gary, pls tell me it gets better!
JohnStossel	716065223074050050	2016-04-02T00:50:27	.Libertarians4US FoxNews Not FoxNewsLive, FBN.
JohnStossel	716065125480804354	2016-04-02T00:50:04	Tonight's your chance to hear from the Libertarian presidential candidates. It's about time! 9pm on FoxBusiness. 
JohnStossel	716064792289656832	2016-04-02T00:48:44	.RonyEstradaR officialmcafee FoxBusiness I will definitely ask.
JohnStossel	716062700338552832	2016-04-02T00:40:26	MacroGraham tv magic
JohnStossel	716060677463482368	2016-04-02T00:32:23	In half an hour I'll live tweet StosselForum at 9pm-10pm ET. Please join us.
JohnStossel	716056472937959424	2016-04-02T00:15:41	Scotty_Do_OCR GaltsGirl 3 of them
JohnStossel	716056325424353286	2016-04-02T00:15:06	justinptak mcafeetogo GovGaryJohnson BitcoinBelle how would I know?
JohnStossel	716056020901040128	2016-04-02T00:13:53	.BitcoinBelle justinptak mcafeetogo GovGaryJohnson I shout out to Michael Badnarik!
JohnStossel	716045746689040384	2016-04-01T23:33:04	.officialmcafee, GovGaryJohnson, &amp; AP4LP debate tonight, 9pm on FoxBusiness. StosselForum 
JohnStossel	716015287183671296	2016-04-01T21:32:02	Sample quote from the first-ever nationally-televised Libertarian presidential debate, airing tonight, 9pm on FBN: 
JohnStossel	715992392617369600	2016-04-01T20:01:03	Reminder: LP candidates GovGaryJohnson, officialmcafee &amp; AP4LP debate each other on StosselForum at 9 pm ET: 
JohnStossel	715962902436585472	2016-04-01T18:03:52	.officialmcafee explains what liberty means to him on my Libertarian Presidential Forum tonite, 9pm on FoxBusiness 
JohnStossel	715958288895057921	2016-04-01T17:45:32	Tonight! JohnStossel moderates the Libertarian Prez Forum.  election2016 
JohnStossel	715938977879076864	2016-04-01T16:28:48	Tonight on STOSSEL: "The Libertarian Presidential Forum"  StosselForum
JohnStossel	715932496660144128	2016-04-01T16:03:03	No foolin', Libertarian presidential debate tonight on FoxBusiness hosted by  JohnStossel at 9pm! tlot
JohnStossel	715895635648454656	2016-04-01T13:36:34	.BashamSte wingsfrompye Apparently FCC rules forbid ME from posting it.  If someone else does, that's beyond my and Fox's control...
JohnStossel	715894014164099073	2016-04-01T13:30:08	.wingsfrompye No. Unless someone posts it on youtube. I'd post it, but FCC rules say I cannot, unless it's close captioned.
JohnStossel	715839622232707072	2016-04-01T09:54:00	COMING UP Al_Leiter22 GillianHTurner JohnStossel CyberGuy kevinmccarthytv MeganMeany GeraldoRivera 
JohnStossel	715563223739576321	2016-03-31T15:35:41	You won’t see this anywhere else! JohnStossel hosts the Libertarian Presidential Forum on Friday at 9pm ET. 
JohnStossel	715673571805122560	2016-03-31T22:54:10	FBN’s JohnStossel hosts Libertarian presidential forum featuring Johnson, McAfee &amp; Petersen  
JohnStossel	715624052958691328	2016-03-31T19:37:24	.realDonaldTrump falling sharply at , but still favorite to win nomination: 
JohnStossel	715588186798292992	2016-03-31T17:14:53	Calling journalism students 
JohnStossel	715561548312227840	2016-03-31T15:29:02	WEB EXCLUSIVE: We were overwhelmed with great questions from you…via social media:  More Fri, 9pm ET StosselForum
JohnStossel	715280670990315520	2016-03-30T20:52:55	This week on STOSSEL: "Libertarian Presidential Forum"   StosselForum
JohnStossel	715215449076576256	2016-03-30T16:33:45	Trump! Clinton! Is that all there is? No. Fortunately, we have other choices. 
JohnStossel	715202729627488256	2016-03-30T15:43:13	Friday's JohnStossel show will be debate among LPNational candidates!  GovGaryJohnson AP4LP officialmcafee
JohnStossel	714995709171380224	2016-03-30T02:00:35	Libertarian presidential candidates are answering YOUR social media questions now! Watch Friday, 9pm. StosselForum 
JohnStossel	714987872886120448	2016-03-30T01:29:27	StosselForum candidates take questions on recent Apple vs FBI question on privacy vs security 
JohnStossel	714979518717562880	2016-03-30T00:56:15	Our audience is loving the StosselForum! Tune in Friday, 9pm on FoxBusiness. 
JohnStossel	714978953585410048	2016-03-30T00:54:00	My panel and I getting ready to analyze Part 1 of the StosselForum 
JohnStossel	714953943789518849	2016-03-29T23:14:38	John warming up for the Libertarian StosselForum 
JohnStossel	714951574620139522	2016-03-29T23:05:13	Almost show time! StosselForum 
JohnStossel	714950590854512640	2016-03-29T23:01:18	Producer view from the control room. StosselForum 
JohnStossel	714945595165843459	2016-03-29T22:41:27	The 3 Candidates relaxing before the StosselForum 
JohnStossel	714941505757118464	2016-03-29T22:25:12	.LPNational StosselForum set prep 
JohnStossel	714914051055304710	2016-03-29T20:36:06	Let the staff hijacking begin: John prepping his questions for tonight's StosselForum 
JohnStossel	714900714489679872	2016-03-29T19:43:07	My staff hijacked my social media  as we prep tnite's debate. Follow along for their behind-the-scenes view of LPNational StosselForum. js
JohnStossel	714564263516332033	2016-03-28T21:26:11	Thanks for your StosselForum submissions. The candidates answer some of your questions Fri, 9pm on FoxBusiness. 
JohnStossel	714076566423265280	2016-03-27T13:08:14	rubbadubDUBS FoxBusiness when did the guide say it was on? What ran instead ?
JohnStossel	713795318643630086	2016-03-26T18:30:40	It's a STOSSEL Saturday! My show "Lessons from Cuba" re-airs tonight on FoxBusiness at 6pm, followed by "Spread the Wealth" at 7pm.
JohnStossel	713538557130870785	2016-03-26T01:30:23	Watching me on FoxBusiness? Stay tuned. Two more STOSSEL episodes are next: "Censored in America" at 10pm and "Rule Breakers" at 11.
JohnStossel	713529681262161921	2016-03-26T00:55:07	Obama got something right: the Cuban embargo has failed. I’ll explain what we SHOULD do. 9pm on FoxBusiness. GiveMeLiberty
JohnStossel	713503020768559104	2016-03-25T23:09:11	I'll be on JohnStossel tonight-FoxBusiness at 9pm. We discuss my new book-Equal Is Unfair  
JohnStossel	713501237149175808	2016-03-25T23:02:05	.GC_Artiles explains why Castro won't be able to stop the rolling tide of capitalism in Cuba, 9pm tonight on FoxBusiness.
JohnStossel	713477830894456832	2016-03-25T21:29:05	.HillaryClinton and SenSanders say the rich get richer while the poor get poorer. That's a LIE! More tonight, 9pm 
JohnStossel	713456188935933953	2016-03-25T20:03:05	My show "Lessons from Cuba" airs tonight at 9pm on FoxBusiness, followed by "Censored in America" at 10pm and "Rule Breakers" at 11pm.
JohnStossel	713431410694983681	2016-03-25T18:24:37	What? It's wrong to celebrate repressive, racist, homophobic mass murderers? “Lessons from Cuba” 9pm tonight on FBN 
JohnStossel	713414906922438656	2016-03-25T17:19:03	Communism isn't sleeping; it is, as always, plotting, scheming, working, fighting. – Richard M. Nixon
JohnStossel	713083728608690177	2016-03-24T19:23:04	The Rolling Stones play in Cuba, Friday! LarrySchweikart says music took down the Soviet Union. More Friday, 9pm. 
JohnStossel	713078957172588547	2016-03-24T19:04:06	America gains most when individuals have great freedom to pursue personal goals without undue government interference.  – Sylvia Earle
JohnStossel	713033903724826625	2016-03-24T16:05:04	Finally! Control-freak NY pols legalize MMA. They should have done it back when danawhite and I fought this idiot: 
JohnStossel	712708266719981568	2016-03-23T18:31:06	Do embargoes on countries like Cuba help people? hfontova and tomgpalmer debate. 
JohnStossel	712692151402934276	2016-03-23T17:27:04	…The world's problem is not too many people, but lack of political and economic freedom... – Julian Lincoln Simon
JohnStossel	712663978158071810	2016-03-23T15:35:07	What bothers me about Donald Trump is that most of his pronouncements are little more than magical thinking.  
JohnStossel	712343690329522176	2016-03-22T18:22:25	Trump says he’ll "Make America Great Again." I say we need a gov't that allows us to make our OWN choices. 
JohnStossel	712314265588248578	2016-03-22T16:25:29	This week’s show is about President Obama’s trip to Cuba. How should we deal with regimes like Cuba?
JohnStossel	712303584566595588	2016-03-22T15:43:03	We are expected to believe that...the only way to preserve our freedom is to hand it over to the government for safekeeping.  –L. Neil Smith
JohnStossel	712024789305528320	2016-03-21T21:15:13	...a Communist? One who has yearnings–for equal division of unequal earnings.  – Ebenezer Elliot
JohnStossel	711949280584466432	2016-03-21T16:15:10	Obama's trip to Cuba has brought mixed reactions. Guests on my show "Capitalism vs. Communism" debate. 
JohnStossel	711599952154066948	2016-03-20T17:07:04	Conformity is the jailer of freedom and the enemy of growth.  – John F. Kennedy
JohnStossel	711244351100182528	2016-03-19T17:34:02	Email your StosselForum video questions to john.stossel@foxnews.com and you might make it on the show: 
JohnStossel	711001784630677504	2016-03-19T01:30:09	Watching now on FoxBusiness? Stay tuned. Another show "The Road to Socialism" comes on in 30 mins.
JohnStossel	710993783685554180	2016-03-19T00:58:22	"I don't fear the GOP implosion, I welcome it" Check out nickgillespie talking realDonaldTrump on JohnStossel on FoxBusiness NOW
JohnStossel	710992941787930624	2016-03-19T00:55:01	realDonaldTrump says he'll "Make America Great Again.” When exactly was America more “great” than now? "The Art of Trump" is tonight, 9pm.
JohnStossel	710981637845098496	2016-03-19T00:10:06	STOSSEL VIEWERS: My show now starts one hour LATER, 9pm, on FoxBusiness! FreedomFriday
JohnStossel	710965780616077312	2016-03-18T23:07:05	Donald Trump in his book, Art of the Deal. Will people “eventually catch on” to him? 
JohnStossel	710943895404675072	2016-03-18T21:40:08	What realDonaldTrump gets right, plus never-aired clips from my confrontations with him at 9pm ET on FoxBusiness. 
JohnStossel	710930047255912450	2016-03-18T20:45:06	Tonight 9pm FoxBusiness with JohnStossel!  Join us! 
JohnStossel	710919723223879682	2016-03-18T20:04:04	Tonight is FreedomFriday: "The Art of Trump" at 9pm, followed by "The Road to Socialism" at 10pm on FoxBusiness.
JohnStossel	710889788727959552	2016-03-18T18:05:07	I don’t like Trump’s bully tactics, but MonicaCrowley praises his “strength” in "The Art of Trump" tonight, 9pm on FoxBusiness.
JohnStossel	710839705785360385	2016-03-18T14:46:07	Who said that? Hillary or Trump?? Producer rikkiratliff found most people are surprised:  
JohnStossel	710530859913195520	2016-03-17T18:18:52	The Green Tyrant strikes again. SeaWorld phasing out killer whale shows. Here’s how were they were smeared: 
JohnStossel	710504998694555654	2016-03-17T16:36:06	I prefer liberty with danger than peace with slavery. – Jean-Jacques Rousseau
JohnStossel	710491216723443712	2016-03-17T15:41:21	Tomorrow on STOSSEL: "The Art of realDonaldTrump" 
JohnStossel	710213541714722816	2016-03-16T21:17:58	I’ll air a full hour on Donald Trump, also including things I DON’T like about him, this Friday at 9pm ET FoxBusiness
JohnStossel	710175072397320192	2016-03-16T18:45:06	Irrespective of any political party, I am a supporter of good people who want to do something for the society. – Kapil Dev
JohnStossel	710168414401253377	2016-03-16T18:18:38	I can skate here ONLY b/c realdonaldtrump fixed this rink after NYC gov’t spent $13M, but FAILED! Good for Trump! 
JohnStossel	710119322362843136	2016-03-16T15:03:34	Politicians' promises are routinely repulsive. I'm thankful that most of their promises will be broken. 
JohnStossel	709899848808435712	2016-03-16T00:31:27	.JohnKasich almost certain to win OhioPrimary  
JohnStossel	709888468948652034	2016-03-15T23:46:14	Betting odds say Florida race is over, Trump beat Rubio easily. Pundits not calling it yet.  
JohnStossel	709886056997330944	2016-03-15T23:36:39	.TedCruz is surging in betting odds for MissouriPrimary :  
JohnStossel	709864122020564992	2016-03-15T22:09:29	Betting odds show Cruz pulled ahead of Trump in Missouri today. Very close.  
JohnStossel	709838997598507009	2016-03-15T20:29:39	OMG, it’s moving day again! New episodes of STOSSEL will now air Fridays at 9pm ET, one hour later, on FoxBusiness 
JohnStossel	709763847133855744	2016-03-15T15:31:02	Global warming is indeed a scam...in need of crash courses in geology, logic and the philosophy of science. – Martin Keeley
JohnStossel	709436693137391616	2016-03-14T17:51:02	Neither political party is clean when it comes to tactics that divide our people. – Roy Barnes
JohnStossel	709429729623801856	2016-03-14T17:23:22	This week’s show will be about Donald Trump. Any pithy suggestions?
JohnStossel	709053663973519360	2016-03-13T16:29:01	...Global warming has become a new religion. – Ivar Giaever
JohnStossel	708801009229778944	2016-03-12T23:45:04	I join 1,000 students advocating for a free society at the sfliberty conference in "The Liberty Vote" tonight, 10pm on FoxBusiness.
JohnStossel	708735067518947329	2016-03-12T19:23:02	Be impressed by young people who GET it. ICYMI, the 1,000 students at sfliberty conference, 10pm on FoxBusiness. 
JohnStossel	708714534547165184	2016-03-12T18:01:26	ChadHoll if you have specific evidence, ideally on video, pls email it to john.f.stossel@foxnews.com
JohnStossel	708493116500787201	2016-03-12T03:21:36	ChadHoll expose of what?
JohnStossel	708442652924973058	2016-03-12T00:01:05	Free college? Gov’t promotion of “values”? Investigation of UFOs? Find out which politicians' promises are the WORST tonight, 8pm on FBN.
JohnStossel	708402389162668032	2016-03-11T21:21:05	.dagenmcdowell, kmanguward, economist Ben Powell and I tackle this year’s 10 worst political promises: 8pm on FoxBusiness. Election2016
JohnStossel	708347445906833408	2016-03-11T17:42:46	My interview &amp; lively debate w/ JohnStossel at the Students for Liberty Conference re-airs on FoxBusiness Saturday at 10PM EST STOSSEL
JohnStossel	708356841705578496	2016-03-11T18:20:06	Donald Trump promised to “fix” libel law so he can "sue you like you never got sued before." More BAD political promises tonight, 8pm on FBN
JohnStossel	708319910888255489	2016-03-11T15:53:21	JohnStossel ten worst political promises and what Trump might not get done &amp;his website best predictor of election @electionbettingodds.com
JohnStossel	707966256029171712	2016-03-10T16:28:03	Liberty means responsibility. That is why most men dread it. – George Bernard Shaw
JohnStossel	707959968490606593	2016-03-10T16:03:04	This week’s STOSSEL is all about the worst political promises Election2016 
JohnStossel	707765085750607872	2016-03-10T03:08:40	PearlJamPat less red tape then in the USA?
JohnStossel	707639369469853696	2016-03-09T18:49:07	Those who expect to reap the blessings of freedom, must, like men, undergo the fatigues of supporting it. – Thomas Paine
JohnStossel	707583003241750529	2016-03-09T15:05:08	Libertarian Lite: Some say libertarians could win politically if they give up their principles. 
JohnStossel	707283501867868161	2016-03-08T19:15:02	...freedom is something people take and people are as free as they want to be. – James Baldwin
JohnStossel	706928288707579904	2016-03-07T19:43:32	Got a question for the Libertarian Party presidential candidates? 
JohnStossel	706907534586552321	2016-03-07T18:21:04	Those who deny freedom to others deserve it not for themselves… – Abraham Lincoln
JohnStossel	706551197235290113	2016-03-06T18:45:07	.MarcoRubio likely to lose his home state of Florida to Trump:  
JohnStossel	706536582900162561	2016-03-06T17:47:02	I'll tape a show on the worst campaign promises. Do you have a nomination? Best answer gets in the show.
JohnStossel	706515195359703040	2016-03-06T16:22:03	Disobedience is the true foundation of liberty. The obedient must be slaves. – Henry David Thoreau
JohnStossel	706244365031776256	2016-03-05T22:25:52	Well everyone who declared the race over last Tuesday night and MittRomney speech of little effect may want to reconsider what has happened
JohnStossel	706244144595931137	2016-03-05T22:25:00	.TedCruz just passed MarcoRubio.  Trump still the big favorite:   
JohnStossel	706166043094421504	2016-03-05T17:14:39	Here's another state RealDonaldTrump probably won’t win tonight.  KansasCaucus 
JohnStossel	705907957809086464	2016-03-05T00:09:06	Among the leading presidential candidates...who's the LIBERTY candidate? That's tonight's show from the sfliberty conference, 8pm on FBN.
JohnStossel	705856636154470400	2016-03-04T20:45:10	I’ll be on STOSSEL tonight @ 8pm ET on FoxBusiness talking millennials socialism &amp; freedom  w/ JohnStossel filmed @ ISFLC16
JohnStossel	705862135817973761	2016-03-04T21:07:02	8p STOSSEL FoxBusiness&gt; PatricePinkFile joins JohnStossel to discuss equality v opportunity, wagegap. ISFLC16 
JohnStossel	705865462375178241	2016-03-04T21:20:15	WATCH: JohnStossel breaks down which GOP candidate can appeal to small government libertarians  
JohnStossel	705871693139582976	2016-03-04T21:45:00	ISFLC16 on JohnStossel tonight at 8PM! Then on Sunday at 7 &amp; 11PM EST  tlot LibertyVote 
JohnStossel	705865673168138240	2016-03-04T21:21:05	Here's our StosselSelfie from the sfliberty conference in DC! Our show airs tonight, 8pm on FoxBusiness. 
JohnStossel	705842782146007042	2016-03-04T19:50:07	ISFLC16 on JohnStossel tonight at 8PM! Then on Sunday at 7 &amp; 11PM EST  tlot LibertyVote 
JohnStossel	705849085077532672	2016-03-04T20:15:10	.NiskanenCenter president Jerry Taylor will be on Stossel tonight to talk about the liberty vote. 8pm, FoxBusiness JohnStossel ISFLC16
JohnStossel	705840245321773057	2016-03-04T19:40:03	Libertarian thinker jerry_jtaylor explains why he’d rather chew glass than support tedcruz. More tonight at 8pm. 
JohnStossel	705823143831564288	2016-03-04T18:32:05	Hundreds of college students at the sfliberty conference star in tonight's show, 8pm on FoxBusiness. ISFLC16 
JohnStossel	705815201212272640	2016-03-04T18:00:32	Catch our spokeswoman PatricePinkFile tonight on JohnStossel 8pm// Fox Business. STOSSEL ISFLC16 
JohnStossel	705454207499792385	2016-03-03T18:06:04	.emilyekins tells sfliberty Bernie Sanders and libertarians can agree on SOME things... More Friday, 8pm. ISFLC16
JohnStossel	705104412792852480	2016-03-02T18:56:06	Freedom is never given; it is won. – A. Philip Randolph
JohnStossel	705058188270432256	2016-03-02T15:52:26	Government pretends it’s the cause of progress. Then it strangles innovation. 
JohnStossel	704879820828639232	2016-03-02T04:03:39	.RealDonaldTrump failed to lock up nomination tonight. His betting odds completely flat.  
JohnStossel	704842118842458112	2016-03-02T01:33:51	.KD8RHR iAll those states are on there. Look closer.
JohnStossel	704710150381154304	2016-03-01T16:49:27	JohnStossel Why aren't AK, CO, MN, OK, TN, and VT on 
JohnStossel	704841002381668352	2016-03-02T01:29:24	Java_Nick what state?
JohnStossel	704807399303974912	2016-03-01T23:15:53	Yes, the rumors are true. Election2016 
JohnStossel	704746042411986944	2016-03-01T19:12:04	If we falter and lose our freedoms, it will be because we destroyed ourselves.  – Abraham Lincoln
JohnStossel	704735761300635648	2016-03-01T18:31:13	Over the past week, Trump's chances of becoming the GOP nominee have spiked +28.7%.   
JohnStossel	704439029530554368	2016-02-29T22:52:07	.realDonaldTrump will probably win every major state but one tomorrow. That’s Texas:  
JohnStossel	704421294788444161	2016-02-29T21:41:38	Depressing:  
JohnStossel	704399173907419136	2016-02-29T20:13:44	This week's STOSSEL is all about The Liberty Vote ISFLC16 
JohnStossel	704388698926817280	2016-02-29T19:32:07	...the fact that life, liberty, and property existed beforehand that caused men to make laws in the first place.  – Frederic Bastiat
JohnStossel	704008427450687488	2016-02-28T18:21:03	There is a certain enthusiasm in liberty, that makes human nature rise above itself.  – Alexander Hamilton
JohnStossel	703373000901406722	2016-02-27T00:16:06	Some say Hollywood's racist, and the Oscars are racist. I debate TrevellAnderson tonight, 8pm on FoxBusiness. Oscars2016
JohnStossel	703332721989283840	2016-02-26T21:36:02	I will be joining JohnStossel “Hollywood Right &amp; Wrong”tonight 8pm EST.Be sure to tune in! STOSSEL Oscars2016. RentBillow &amp; JoyTheMovie
JohnStossel	703328961883824129	2016-02-26T21:21:06	It’s Oscar time! So l award "Stosscars" for best POLITICAL performances tonight, 8pm. 3 of 12 categories here: 
JohnStossel	703284673036709889	2016-02-26T18:25:07	It’s Oscar time! What facts did Hollywood get right? Wrong? "Hollywood: Right and Wrong" tonight, 8pm on FoxBusiness. Oscars2016
JohnStossel	703263356120014848	2016-02-26T17:00:24	.TrevellAnderson says the Oscars aren’t just so white, Hollywood’s not paying fairly either:  More tonite at 8pm.
JohnStossel	703251246346407937	2016-02-26T16:12:17	Also, flew to NYC earlier this week for an OscarsSoWhite segment on JohnStossel's Fox Business Network. Airs today 8PM ET.
JohnStossel	703248195795554305	2016-02-26T16:00:10	Want a chance to meet me sfliberty tomorrow in D.C.? 
JohnStossel	703067082989043712	2016-02-26T04:00:29	Bettors say MarcoRubio won the debate; realDonaldTrump lost.  GOPdebate 
JohnStossel	702970091361554433	2016-02-25T21:35:04	.KevinHilley I got mine ceidotorg, but they're sold on the web 
JohnStossel	702955805612634112	2016-02-25T20:38:19	Prepping with producers for my sfliberty show in D.C. Yes, hoodie says "Enjoy Capitalism."  Please do. ISFLC16 
JohnStossel	702936867746885632	2016-02-25T19:23:03	This week’s STOSSEL is all about what Hollywood gets right and wrong. Oscars2016 
JohnStossel	702880926695616513	2016-02-25T15:40:46	Want a chance to meet me sfliberty this Saturday? ISFLC16 
JohnStossel	702562816310571008	2016-02-24T18:36:43	Uh oh: realDonaldTrump now crushing even Rubio in betting odds for the GOP Nomination.  
JohnStossel	702559392911101952	2016-02-24T18:23:06	If you think Hollywood is depressing and corrupt, politics is...fueled even more than Hollywood by money, if that's possible.  – Ben Affleck
JohnStossel	702553648388132864	2016-02-24T18:00:17	Want a chance to meet me sfliberty this Saturday? 
JohnStossel	702514583462924288	2016-02-24T15:25:03	.JoyTheMovie and Bad Laws: Oscar nominees offer lessons on freedom and bad government  Oscars2016
JohnStossel	702225186871857152	2016-02-23T20:15:05	In Hollywood, no one knows anything.  – William Goldman
JohnStossel	701828583069618178	2016-02-22T17:59:08	When the mass media...serve as megaphones for the rhetoric of their government, the result is ludicrous propaganda.  – Norman Solomon
JohnStossel	701472471799635968	2016-02-21T18:24:04	National uniformity is being imposed by...the cultural class in charge of Hollywood and the Ivy League.  – Michael Hill
JohnStossel	701418314011172864	2016-02-21T14:48:52	It’s now effectively a 2-person race according to people putting money on the line:  
JohnStossel	701190100688830465	2016-02-20T23:42:02	Wake up with STOSSEL! "Grow Up: Parenting Wars" airs tomorrow, 8am on FoxBusiness. "It's My Idea" airs at 9am. 
JohnStossel	701163475268145152	2016-02-20T21:56:14	Bettors say realDonaldTrump wins SC tonight…but marcorubio chances rising at  
JohnStossel	701140273443647489	2016-02-20T20:24:02	I tape an Oscars show next week. What did this year’s nominees get right? Wrong? Pick ONE and we may quote you.
JohnStossel	701081288619515904	2016-02-20T16:29:39	Nanny MikeBloomberg now more likely to become President than JebBush at  Election2016 
JohnStossel	700834773443305472	2016-02-20T00:10:05	Find out why GovernorPataki thinks marcorubio will be the next president if he gets the nomination. Tonight, 8pm on FoxBusiness.
JohnStossel	700790740620685312	2016-02-19T21:15:07	.henrymcmaster explains why he backs realDonaldTrump on my show "Last Men Standing" tonight, 8pm on FoxBusiness. Election2016
JohnStossel	700768334598410240	2016-02-19T19:46:05	Do any of the remaining GOP candidates REALLY stand for freedom? That's my show tonight, 8pm on FoxBusiness. Election2016
JohnStossel	700746195795255297	2016-02-19T18:18:06	Trump's “they’re x, they’re rapists” seems mean-spirited. henrymcmaster says it’s not.  More tonight at 8pm.
JohnStossel	700472420172488704	2016-02-19T00:10:13	I will be joining JohnStossel “Last Men Standing” tonight 8pm EST. Be sure to tune in! STOSSEL Election2016.
JohnStossel	700471614975029249	2016-02-19T00:07:01	.MattWelch says BernieSanders is better than two of the remaining GOP candidates. Really? More tonight, 8pm on FoxBusiness. Election2016
JohnStossel	700387061971312640	2016-02-18T18:31:02	It’s down to: Trump, Rubio, Cruz, Bush, Kasich. Who is best? Worst? That's my show tonight, 8pm on FoxBusiness. Election2016
JohnStossel	700383794809864192	2016-02-18T18:18:03	The moral and constitutional obligations of our representatives in Washington are to protect our liberty, not coddle the world... – Ron Paul
JohnStossel	700139986587426816	2016-02-18T02:09:15	Truth.  Planning. 
JohnStossel	700134714603134976	2016-02-18T01:48:18	Thank you Apple, for not giving in.   tim_cook
JohnStossel	700052872298278912	2016-02-17T20:23:05	This week's STOSSEL is all about The Last Men Standing Election2016 
JohnStossel	700035190836629504	2016-02-17T19:12:50	Sat down w/ JohnStossel to discuss why I support marcorubio - Last Men Standing airs tomorrow &amp; Friday TeamRubio 
JohnStossel	700035754211147776	2016-02-17T19:15:04	We must always embrace individual liberty and enforce the constitutional rights of all Americans... – Rand Paul
JohnStossel	700008917288357888	2016-02-17T17:28:26	Robot cars may soon save 30,000 lives a year, if bureaucrats let them. The technology is way ahead of our laws. 
JohnStossel	699680484876558336	2016-02-16T19:43:21	.suttonlead JohnKasich We wish he would come on. Kasich's staff expressed interest, but then stopped answering our emails.
JohnStossel	699674132020011008	2016-02-16T19:18:07	Things in our country run in spite of government, not by aid of it.  – Will Rogers
JohnStossel	699383207607685121	2016-02-16T00:02:05	Are we on a destructive road to socialism? That's my show tonight, 8pm on FoxBusiness. Election2016
JohnStossel	699299913520119810	2016-02-15T18:31:06	Under socialism, government owns everything. Our government only owns about HALF! More on "The Road to Socialism?" at 8pm on FBN.
JohnStossel	699292599702548480	2016-02-15T18:02:02	It is error alone which needs the support of government. Truth can stand by itself.  – Thomas Jefferson
JohnStossel	698985319895474176	2016-02-14T21:41:01	Any American who is prepared to run for president should automatically, by definition, be disqualified from ever doing so.  – Gore Vidal
JohnStossel	698948326675251200	2016-02-14T19:14:01	This week's show is about these 5 candidates: Trump, Cruz, Rubio, Bush, and Kasich. Is there a point you want me to make about one of them?
JohnStossel	698315915893411840	2016-02-13T01:21:03	More STOSSEL night! My special "Green Tyranny" re-airs at 10pm on FoxBusiness. The green movement does promote tyranny.
JohnStossel	698298301687312388	2016-02-13T00:11:03	Yikes! Apparently Americans LIKE socialism! FrankLuntz explains how they got fooled tonight, 8pm on FoxBusiness. Election2016
JohnStossel	698289759005741057	2016-02-12T23:37:06	Bonus STOSSEL tonight: North Korean escapee Yeonmi Park explains how she learned about freedom, 9pm on FoxBusiness.
JohnStossel	698259308824276992	2016-02-12T21:36:06	.BernieSanders' brand of democratic socialism is “cool," sadly. More on my show "The Road to Socialism?" tonight, 8pm on FoxBusiness.
JohnStossel	698223836521627648	2016-02-12T19:15:09	.@HDCollegian writes about tonight’s Stossel guest. He fled socialism in Yugoslavia. .  More at 8pm.
JohnStossel	698211743789518849	2016-02-12T18:27:06	7 million people have watched crazyglorita's video bashing socialism:  She joins me tonight, 8pm on FoxBusiness.
JohnStossel	698184051820089345	2016-02-12T16:37:04	The problem with socialism is that you eventually run out of other peoples' money. – Margaret Thatcher
JohnStossel	698175047496630274	2016-02-12T16:01:17	.crazyglorita gives us a history lesson on socialism as Venezuela continues to crumble  More tnite at 8pm.
JohnStossel	697891922199846912	2016-02-11T21:16:15	.FrankLuntz explains how Bernie Sanders increased Americans’ appetite for socialism.  More 8pm tomorrow.
JohnStossel	697826459541352448	2016-02-11T16:56:07	...communism proposes to enslave men by force, socialism—by vote. It is merely the difference between murder and suicide.  – Ayn Rand
JohnStossel	697542039672614912	2016-02-10T22:05:56	This week's STOSSEL is all about socialism. Election2016 
JohnStossel	697508090627776512	2016-02-10T19:51:02	Socialism, like the ancient ideas from which it springs, confuses the distinction between government and society.  – Frederic Bastiat
JohnStossel	697440487792340993	2016-02-10T15:22:24	High-Tech TedCruz: "Just on the Second Amendment, we have a dozen different messages." 
JohnStossel	697164816377585664	2016-02-09T21:06:59	Media say HillaryClinton challenging BernieSanders? Fuggedaboutit! Bettors say Sanders and Trump win: 
JohnStossel	697123057291251713	2016-02-09T18:21:03	Socialism is a philosophy of failure...equal sharing of misery.  – Winston Churchill
JohnStossel	697088917040996353	2016-02-09T16:05:23	Viernes 12 Feb 7 GT 8PM NYC entrevista con JohnStossel en FoxNews sobre el Socialismo en el siglo XXI 
JohnStossel	696786106331852801	2016-02-08T20:02:08	.tedcruz used aggressive data tactics to help win Iowa. Will it work in NH? jeffroe gave us an inside look: 
JohnStossel	696752628881985536	2016-02-08T17:49:06	All socialism involves slavery.  – Herbert Spencer
JohnStossel	696711453085200385	2016-02-08T15:05:29	This week I tape a show on SOCIALISM. Point you think I should make?
JohnStossel	696559061593104388	2016-02-08T04:59:56	soskmb FoxNews Me, too.
JohnStossel	696498068770918403	2016-02-08T00:57:34	Commercial. 6:30 til half Decision time. Watch Stossel? Or NFL?
JohnStossel	696433784468717568	2016-02-07T20:42:07	JohnStossel FoxNews no worries - always on the DVR!
JohnStossel	696496121993170944	2016-02-08T00:49:50	WendyLambert good!
JohnStossel	696483849732132865	2016-02-08T00:01:04	My new special "The Tech Revolution" is on FoxNews tonight @ 8 &amp; 11pm, up against the Super Bowl! I try the driverless car. Scary but cool!
JohnStossel	696433488241782784	2016-02-07T20:40:57	Ouch! FoxNews puts my new TV special on tonight--good! But it's up against the Super Bowl! 8 and 11pm.
JohnStossel	696427577360171008	2016-02-07T20:17:28	ohmbo Badly.
JohnStossel	696427371168141312	2016-02-07T20:16:38	DavMicRot what points do I miss?
JohnStossel	696423443298807808	2016-02-07T20:01:02	The object and practice of liberty lies in the limitation of governmental power.  – General Douglas MacArthur
JohnStossel	695996146498588672	2016-02-06T15:43:06	ghostofanation For my show, I usually decide.
JohnStossel	695995679160803329	2016-02-06T15:41:15	.JJLovegrove 2 concerns are his eagerness to create new terrorists by bombing so many people, and his wish to lock up drug users.
JohnStossel	695789682811133952	2016-02-06T02:02:42	ghostofanation what?
JohnStossel	695789514187534341	2016-02-06T02:02:01	clearyourtracks tedcruz sure seemed that way to me.
JohnStossel	695780440221753344	2016-02-06T01:25:58	JohnStossel tedcruz FoxBusiness Like you said on Fox this morning, it's creepy. Nothing is private and it's all for sale.
JohnStossel	695763098267824128	2016-02-06T00:17:03	.tedcruz may have won Iowa b/c he uses superior technology. We out their tech ops on my show tonight, 8pm on FoxBusiness. Election2016
JohnStossel	695728700764061696	2016-02-05T22:00:22	In 3 hours: AP4LP on JohnStossel on FoxBusiness talking about liberty and his awesome mustache.  Join me: 
JohnStossel	695721823296581632	2016-02-05T21:33:03	Maybe I’ll move to NH! FreeStateNH founder JasonSorens and his wife say FSP has “triggered." "Live Free or Die" at 8pm on FoxBusiness.
JohnStossel	695676269493559297	2016-02-05T18:32:02	Will NH live up to its "live free or die" motto? Or will they vote for freedom-crushing candidates? We debate tonight, 8pm on FoxBusiness.
JohnStossel	695651869553614848	2016-02-05T16:55:04	Freedom is a fragile thing and is never more than one generation away from extinction.  – Ronald Reagan
JohnStossel	695622369998667776	2016-02-05T14:57:51	I said my new special is on Saturday! I meant SUNDAY.  Sadly, it's up against the Super Bowl!   
JohnStossel	695601513159356416	2016-02-05T13:34:59	rocdomz ha ha. Sorry, trying to simplify my life.
JohnStossel	695601311606272000	2016-02-05T13:34:10	RandTheBrand The Libertarian candidate.
JohnStossel	695330510495547393	2016-02-04T19:38:06	He is free who lives as he wishes to live; who is neither subject to compulsion nor to hindrance, nor to force... – Epictetus
JohnStossel	694688268017876992	2016-02-03T01:06:04	JohnStossel and I share some ZEST. Watch Friday and discover why 
JohnStossel	694954270546735104	2016-02-03T18:43:04	If you ever live in a country run by a committee, be on the committee. – William Graham Sumner
JohnStossel	694908292271837185	2016-02-03T15:40:22	Politicians never apologize. They charge forward. Their solution to failed government investment is more government. 
JohnStossel	694586144743272448	2016-02-02T18:20:16	Polls have me on top for the LPNational nomination for POTUS. Be sure to watch me on JohnStossel this week on FoxBusiness! tlot AP4LP
JohnStossel	694599947526676480	2016-02-02T19:15:07	...Founding Fathers: We're sorry...You made it possible for us to live free and we blew it.  – Phil Murphy
JohnStossel	694595914195935232	2016-02-02T18:59:05	Happy birthday to the woman who continues to teach people liberty, Ayn Rand.
JohnStossel	694367072483184641	2016-02-02T03:49:45	I'm embarrassed. Knowing bettors beat the polls, I over-relied on ! Voters are unpredictable.
JohnStossel	694351227732258817	2016-02-02T02:46:47	itsmesteph11 having dinner with my daughter
JohnStossel	694348127244009473	2016-02-02T02:34:28	JohnStossel actually, Cruz is WAY ahead in the betting suddenly. 
JohnStossel	694347374873939969	2016-02-02T02:31:29	Cruz is suddenly ahead in the betting in Iowa! .
JohnStossel	694344533044260865	2016-02-02T02:20:11	lik2rce realDonaldTrump no
JohnStossel	694318545031839745	2016-02-02T00:36:55	ToddAldinger yes.
JohnStossel	694315444249952256	2016-02-02T00:24:36	@mrjackb1 @LeicsFox PyroIsNotDead JohnStossel realDonaldTrump Clinton will win iowa and new Hampshire
JohnStossel	694315874602389504	2016-02-02T00:26:18	MAHAMOSA what would a serious journalist do?
JohnStossel	694315570024570880	2016-02-02T00:25:06	.SideshowJon36 TrishIntel . But the polls say it will be close. The betting does not
JohnStossel	694309265989898241	2016-02-02T00:00:03	Polls are silly. The BETTING says Iowa not close: Clinton &amp; Trump to win IowaCaucus.  
JohnStossel	694305517808660480	2016-02-01T23:45:09	.JohnStossel - Why look at the polls when there's a better way to predict a winner?  
JohnStossel	694218920782221315	2016-02-01T18:01:03	I'd rather live free with some peril than be a protected slave of government.  – Dave Duffy
JohnStossel	693877427869618176	2016-01-31T19:24:05	New Hampshire’s primary is in one week. My next show covers the “Live Free or Die” state. Your thoughts? Does NH help the liberty movement?
JohnStossel	693847971171962880	2016-01-31T17:27:02	Live free or die.  – New Hampshire State Motto
JohnStossel	693527380208398336	2016-01-30T20:13:07	Billions spent on mass transit, but fewer people use it. Randal O’Toole shows how your money is misspent: 
JohnStossel	693475140399677440	2016-01-30T16:45:32	DonaldDennis6 realDonaldTrump FoxNews No.
JohnStossel	693468534349897729	2016-01-30T16:19:17	TrinityAssetMan realDonaldTrump FoxNews 1% of 10 billion is 100 million
JohnStossel	693466744808181760	2016-01-30T16:12:10	.realDonaldTrump FoxNews Why so cheap? You say you have 10 billion dollars. At just 1% interest, you make $100M/yr. Why not give that?
JohnStossel	693461770032275456	2016-01-30T15:52:24	JohnStossel  without RandPaul they lost 7 million.  Correlation or Causation?  w/o realDonaldTrump they got 1.5M 
JohnStossel	693449189720723456	2016-01-30T15:02:25	Trump now above 65% in Iowa.  Both he and Hilary strong favorites: 
JohnStossel	693441463322087424	2016-01-30T14:31:43	Philco96 DeadlineDominic Fair point.  But the FIRST debate is a big deal, and not a good comparison.
JohnStossel	693435121052094464	2016-01-30T14:06:30	.Philco96 Sorry, not true. 12.5 million viewers. UP from last debate: 
JohnStossel	693257311935078400	2016-01-30T02:19:57	byteusa Fahrenthold he wrote the article about Christie "fixing" Atlantic City.
JohnStossel	693256015509393409	2016-01-30T02:14:48	The tweeting age...this is what we do during commercial breaks: 
JohnStossel	693252155306831872	2016-01-30T01:59:28	.GLyles_GatorFan GovChristie actually, he's good on entitlements, And that's big bucks.
JohnStossel	693251669065388032	2016-01-30T01:57:32	.fahrenthold, Thanks for your good reporting. I'm stealing it and putting it on TV
JohnStossel	693251125009596416	2016-01-30T01:55:22	Thank, I meant to say thank
JohnStossel	693250743885828096	2016-01-30T01:53:51	I think the Washington Post for my worst candidate of the week
JohnStossel	693236951504265216	2016-01-30T00:59:03	About to do my show LIVE. But I don't like Live!
JohnStossel	693225898892341252	2016-01-30T00:15:08	.HeyTammyBruce, kmele, jason2CD, and I give our takes on the latest GOP debate. Tonight, 8pm on FoxBusiness. Election2016
JohnStossel	693191207380520961	2016-01-29T21:57:17	Join me on JohnStossel tonight for his special "Debating Our Future" on FoxBusiness at 8p ET!
JohnStossel	693183340879327233	2016-01-29T21:26:01	.GovChristie was confident he could fix Atlantic City. He was wrong. That and more on my show tonight, 8pm on FoxBusiness. Election2016
JohnStossel	693153880285278209	2016-01-29T19:28:57	Placing ur bet on candidates- What r the odds? &amp; Why do they differ from polls? RealTalk w/ JohnStossel moments from now..
JohnStossel	693136802371141633	2016-01-29T18:21:06	Most candidates pander to Iowa's ethanol crapitalists. Kudos to RandPaul and tedcruz. More on my show tonight, live @ 8pm on FoxBusiness.
JohnStossel	693111118751895552	2016-01-29T16:39:02	The government's War on Poverty has transformed poverty from a short-term misfortune into a career choice.  – Harry Browne
JohnStossel	692921724824875009	2016-01-29T04:06:27	GOPDebate Translation: 
JohnStossel	692920791378296833	2016-01-29T04:02:45	Betting odds changed a little during debate. Rubio up, Cruz down. Sadly, HillaryClinton up: 
JohnStossel	692920071824490497	2016-01-29T03:59:53	And thank YOU, Megyn!  You are refreshing.
JohnStossel	692919803191902208	2016-01-29T03:58:49	marcorubio: I love God more than you do!
JohnStossel	692919695419297792	2016-01-29T03:58:23	Even Carson surprises with a good closing statement!
JohnStossel	692919329604681729	2016-01-29T03:56:56	Terror is indeed, frightening. Sadly, so is GovChristie
JohnStossel	692918928364978176	2016-01-29T03:55:20	Nice short closing statement from Rand.  Simple.  Clear.  Finally...
JohnStossel	692917329303343104	2016-01-29T03:48:59	Iowa's governor's son works for the ethanol scammers!  How sleazy he is to criticize tedcruz for having the guts to oppose the mandate.
JohnStossel	692916335085486085	2016-01-29T03:45:02	They're in Iowa. Ask about the disgusting ethanol mandate! 
JohnStossel	692915029176369152	2016-01-29T03:39:51	Send troops to Libya? Christie: Watch me not answer that one.
JohnStossel	692910614449094656	2016-01-29T03:22:18	I'm glad marcorubio cleared up the understandable confusion that arose when a magazine referred to him as the "Republican savior."
JohnStossel	692908942171717633	2016-01-29T03:15:40	GOPDebate Translation: 
JohnStossel	692904422138101760	2016-01-29T02:57:42	I wish Jeb said this about Puerto Rico: 
JohnStossel	692904044038340609	2016-01-29T02:56:12	Rubio: Climate rules "do nothing to help the environment, but are devastating to the economy!"  Got that right.
JohnStossel	692902090738372609	2016-01-29T02:48:26	Rand didn't answer the Q, but makes a good point about towns telling cops to collect lots of fines: 
JohnStossel	692900463654653952	2016-01-29T02:41:58	Bad and some charities are, government is MUCH worse. Government policing charities is a bad idea.
JohnStossel	692900270171238401	2016-01-29T02:41:12	Kasich: zzzzzzz.  Never was the bell so welcome.
JohnStossel	692899609459306496	2016-01-29T02:38:35	When they scare you to death about terrorism, remember this: 
JohnStossel	692898799472156672	2016-01-29T02:35:21	I wish Senator Paul should just say what he believes, not brag about bills he supported.
JohnStossel	692896912995958784	2016-01-29T02:27:52	Go Chris Wallace! Time for Cruz to wait his turn.
JohnStossel	692895456385323010	2016-01-29T02:22:04	A shrunken military? 
JohnStossel	692894364679340032	2016-01-29T02:17:44	Kasich says, "Stop the divisions."  No! We have REAL divisions.  Leave govt out of decision-making and more of us can have what we want!
JohnStossel	692891803691802624	2016-01-29T02:07:33	Why must Cruz and Rubio keep saying "let me be clear."  Just say it.
JohnStossel	692882630308548610	2016-01-29T01:31:06	Tomorrow I tape a live show reacting to tonight’s GOP debate. Who said smart/dumb things? I’ll read your posts on my show. Election2016
JohnStossel	692807139824242688	2016-01-28T20:31:08	Tonight I'll be on Twitter doing GOPDebate translations in real time again, cutting thru the candidates' rhetoric. 
JohnStossel	692793029678137344	2016-01-28T19:35:04	In any free society, the conflict between social conformity and...liberty is permanent, unresolvable, and necessary.  – Kathleen Norris
JohnStossel	692764854264827904	2016-01-28T17:43:06	Hurricane Katrina destroyed much of New Orleans, but created something good: more charter schools:  SchoolChoiceWeek
JohnStossel	692431141920333825	2016-01-27T19:37:03	SchoolChoiceWeek is needed because moms like Kelley are jailed for sending their kids to a better school: 
JohnStossel	692403205754335232	2016-01-27T17:46:03	Biofuels such as ethanol require enormous amounts of cropland and end up displacing either food crops or natural wilderness... – Elon Musk
JohnStossel	692371202841690112	2016-01-27T15:38:53	Cars run on fuel. Politicians run on votes, and they'll do almost anything to get them.   Election2016
JohnStossel	692106560181510145	2016-01-26T22:07:17	Chris Christie was confident he could fix Atlantic City. Great WaPo report shows the conceit of the gov't planner. 
JohnStossel	692082594536525824	2016-01-26T20:32:03	Teachers unions fight choice. One told me: “Competition isn’t for kids!” I disagree.  SchoolChoiceWeek.
JohnStossel	692063217447612416	2016-01-26T19:15:03	As our rights fade... government becomes more powerful than at any time in our history.  – Kevin Maley
JohnStossel	691718437228322816	2016-01-25T20:25:01	...welfare is bad...because it is intrinsically at odds with the way human beings come to live satisfying lives.  – Charles Murray
JohnStossel	691682184625717248	2016-01-25T18:00:58	Want to improve kids’ education? Let parents decide what’s best for THEIR kids:  SchoolChoiceWeek.
JohnStossel	691323086717603840	2016-01-24T18:14:02	Man exists for his own sake and not to add a laborer to the state.  – Ralph Waldo Emerson
JohnStossel	690748298085404673	2016-01-23T04:10:02	.DeanNoLongerInO Yes.
JohnStossel	690713435697451008	2016-01-23T01:51:30	.disturbedsauce FioritoPatrick makeishura RandPaul FoxBusiness Ecoli infected "natural" food.
JohnStossel	690643957890416640	2016-01-22T21:15:25	.SenSanders says Americans work longer hours. False! More EconMyths tonight, 5pm on FoxBusiness. 
JohnStossel	690629004030820352	2016-01-22T20:16:00	Prof. BrianBrenberg is like the Mythbusters for economics on JohnStossel --tonight, 5PMEST.
JohnStossel	690625153886134272	2016-01-22T20:00:42	.realDonaldTrump says “tax Chinese imports!” But who will that hurt most?    More tonight at 5pm (Not 8pm) ET.
JohnStossel	690617947891507201	2016-01-22T19:32:04	.RandPaul explains why regulations make life WORSE for consumers in tonight's show (at 5pm, not my usual 8pm) on FoxBusiness. EconMyths
JohnStossel	690598315298189313	2016-01-22T18:14:03	It is a socialist idea that making profits is a vice. I consider the real vice is making losses. – Winston Churchill
JohnStossel	690585115068469248	2016-01-22T17:21:36	I'll be joining JohnStossel tonight at 5pm ET on FoxBusiness. Tune in for a dose of liberty!
JohnStossel	690580001821851648	2016-01-22T17:01:17	A minimum wage helps poor people? Wrong! It helps some, but hurts more. EconMyths tonight at 5pm on FoxBusiness. 
JohnStossel	690530928431611904	2016-01-22T13:46:17	Some people bet on sports... others bet on the 2016 election. Check out JohnStossel's site  
JohnStossel	690319280034955264	2016-01-21T23:45:16	Some pols say free trade kills American jobs. “Wrong!” says BrianBrenberg: . More from EconMyths Friday at 5pm Et.
JohnStossel	690236194001522689	2016-01-21T18:15:07	The essential notion of a capitalist society…is voluntary cooperation, voluntary exchange.  – Milton Friedman
JohnStossel	689976424489455617	2016-01-21T01:02:53	About to try to convince oreillyfactor that polls are vastly inferior to .
JohnStossel	689911053195415553	2016-01-20T20:43:07	This week’s STOSSEL is all about EconMyths 
JohnStossel	689868508725784576	2016-01-20T17:54:04	Genuine free trade doesn’t require a treaty.  – Murray Rothbard
JohnStossel	689836910601211905	2016-01-20T15:48:30	Politicians are so ignorant about economics.  EconMyths
JohnStossel	689507877963214848	2016-01-19T18:01:03	Something appears to have gone wrong: A liberal and compassionate social policy has bred...perverse consequences.  – Irving Kristol
JohnStossel	689190063570206720	2016-01-18T20:58:10	No nation was ever ruined by trade. – Benjamin Franklin
JohnStossel	689139323233411072	2016-01-18T17:36:32	.TheRealWolfLine Dgschwartz realDonaldTrump Crushed? No. Cruz maybe. Rubio's still doing ok at .
JohnStossel	689129316446175232	2016-01-18T16:56:47	.Dgschwartz  So put your $ where your mouth is! Can't bet on my site, , but you can at .
JohnStossel	689116098017529856	2016-01-18T16:04:15	On Varneyco just now, saying how Trump and Hillary are up, forgot to mention the link to our site: 
JohnStossel	689104013195907073	2016-01-18T15:16:14	.dstxus I should. I did last time. I was at a family event, and I didn't even know that the democratic debate was on.
JohnStossel	688792407903604736	2016-01-17T18:38:01	“Econ myths” is this week’s show topic. What stupid ideas about taxes, wages, regulations frustrate you? I’ll read your best suggestions.
JohnStossel	688439333674549249	2016-01-16T19:15:02	…No man is good enough to govern another man without that other's consent.  – Abraham Lincoln
JohnStossel	688064631613460480	2016-01-15T18:26:06	I do not believe that the government should have its...nose poked into the private consensual relationships between people.  – John Anderson
JohnStossel	687852667905925121	2016-01-15T04:23:50	dartgunintel yes. But they give us useful stuff. We give them paper. Good deal for us.
JohnStossel	687851848452194304	2016-01-15T04:20:34	Majority420 trying...
JohnStossel	687850577783558145	2016-01-15T04:15:32	SHWeiss01 aha... AG's...  Yes you did.
JohnStossel	687849774679244804	2016-01-15T04:12:20	Carolinacate3 not poll takers.  Bettors.
JohnStossel	687849550715990016	2016-01-15T04:11:27	SHWeiss01 Absolutely. but where is the old city grill?
JohnStossel	687849100885229568	2016-01-15T04:09:39	MHenkelPolygamy they yelled something about wanting RandPaul
JohnStossel	687848243410153476	2016-01-15T04:06:15	tylerahill7918 Fair enough. Good point
JohnStossel	687847999804977153	2016-01-15T04:05:17	Since debate began: Cruz up; Trump and Bush down; Sanders (why?) down:  
JohnStossel	687847914228584448	2016-01-15T04:04:57	mflynny tsrblke but I AM watching
JohnStossel	687847279500378112	2016-01-15T04:02:25	GOPDebate Translation: 
JohnStossel	687846002716504064	2016-01-15T03:57:21	Never has a commercial break been so welcome.
JohnStossel	687845538960699392	2016-01-15T03:55:30	ledgewon More jobs are GAINED when imports are cheaper.
JohnStossel	687845047715389440	2016-01-15T03:53:33	Shakle133 Yes, win-win.  A TRADE deficit doesn't matter. The BUDGET deficit matters.
JohnStossel	687844471984250880	2016-01-15T03:51:16	GOPDebate Translation: 
JohnStossel	687843826975793153	2016-01-15T03:48:42	GOPDebate Translation: 
JohnStossel	687843042355732480	2016-01-15T03:45:35	GOPDebate Translation: 
JohnStossel	687842434202644480	2016-01-15T03:43:10	GOPDebate Translation: 
JohnStossel	687841700459446272	2016-01-15T03:40:15	GOPDebate Translation: 
JohnStossel	687830932435406848	2016-01-15T02:57:28	.SenTedCruz is up in the election betting odds, and Bush is down:  GOPDebate
JohnStossel	687830188500074496	2016-01-15T02:54:30	Get real. This is Obama's "gutting the military:" GOPDebate 
JohnStossel	687826315177779200	2016-01-15T02:39:07	GOPDebate Translation: 
JohnStossel	687822357956825088	2016-01-15T02:23:23	GOPDebate Translation: 
JohnStossel	687820757204910082	2016-01-15T02:17:02	.SenTedCruz: "Middle class incomes have stagnated." That claim polls well. I haven't noticed this. GOPDebate 
JohnStossel	687807153843892225	2016-01-15T01:22:58	cathywithwings FoxBusiness ericbolling KennedyNation cvpayne I don't know...
JohnStossel	687754011286593537	2016-01-14T21:51:48	Join ericbolling, KennedyNation, cvpayne &amp; JohnStossel for a chat during GOPDebate on  
JohnStossel	687728539886563332	2016-01-14T20:10:35	Tonight I'll be on Twitter doing GOPDebate translations in real time again, cutting thru the candidates' rhetoric. 
JohnStossel	687692419228241920	2016-01-14T17:47:04	The spirit of resistance to government is so valuable on certain occasions that I wish it to be always kept alive.  – Thomas Jefferson
JohnStossel	687383877115985923	2016-01-13T21:21:01	The history of liberty is a history of the limitation of governmental power, not the increase of it.  – Woodrow Wilson
JohnStossel	687356965404577792	2016-01-13T19:34:05	St. Louis taxpayers are lucky not to subsidize a boondoggle. This video explains:  RamsToLA
JohnStossel	687334564268646400	2016-01-13T18:05:04	Obama Promised Optimism at State of the Union—Americans Don't Need Politicians For That 
JohnStossel	687317013451141121	2016-01-13T16:55:20	.realDonaldTrump just overtook marcorubio!  
JohnStossel	687304119384576001	2016-01-13T16:04:06	Tonight I'm in Manchester, NH for a CKinstitute panel on keeping America secure. Join us:  
JohnStossel	687092206356725760	2016-01-13T02:02:02	R U near Manchester, NH?  Tomorrow, I'll moderate this CKinstitute panel. Come join us!  
JohnStossel	686977218409398272	2016-01-12T18:25:06	Tonight I’m in Manchester NH for a CKinstitute panel on police grabbing property. Join us!  
JohnStossel	686946502866907136	2016-01-12T16:23:03	…We know that enduring peace cannot be bought at the cost of other people's freedom. – Franklin D. Roosevelt
JohnStossel	686627895280713728	2016-01-11T19:17:01	Want 2 know who nxt pres will be? JohnStossel says don't trust polls-- instead place your bets. He's here 2 explain TheRealStory NXT!
JohnStossel	686624378583252994	2016-01-11T19:03:03	The Constitution: it's not just a good idea, it's the law.  – Michael Badnarik
JohnStossel	686621645360873472	2016-01-11T18:52:11	Near Manchester, NH tomorrow at 7pm? I'll moderate this CKinstitute panel. Join us!  
JohnStossel	686249928192999425	2016-01-10T18:15:07	The rule of law can be wiped out in one misguided, however well-intentioned, generation.  – William T. Gossett
JohnStossel	685969140998340608	2016-01-09T23:39:22	I am rooting for EiferTy85 &amp; the Bengals tonight PITvsCIN
JohnStossel	685899113418768384	2016-01-09T19:01:06	Restriction of free thought and free speech is...the one un-American act that could most easily defeat us.  – Justice William O. Douglas
JohnStossel	685606184049483777	2016-01-08T23:37:06	Students today are “protected” from words they find disturbing. Some speakers lose jobs. More tonight at 8pm on FoxBusiness.
JohnStossel	685573698162528256	2016-01-08T21:28:01	.MarkSteynOnline explains why more speech, not less, is the answer to hate. More on “Censored in America” tonight at 8pm on FoxBusiness.
JohnStossel	685541756994109440	2016-01-08T19:21:06	For the average American, freedom of speech is simply the freedom to repeat what everyone else is saying and no more.  – Gore Vidal
JohnStossel	685528148629274625	2016-01-08T18:27:01	We are supposed to have the RIGHT to speak, but today that freedom freaks some people out. "Censored in America" airs tonight at 8pm.
JohnStossel	685495845911842816	2016-01-08T16:18:40	realDonaldTrump passes Cruz in the betting!  
JohnStossel	685165005319225344	2016-01-07T18:24:01	Free speech is meaningless unless it tolerates the speech that we hate.  – Henry J. Hyde
JohnStossel	685153809933426688	2016-01-07T17:39:32	This week’s STOSSEL is all about free speech. Censored 
JohnStossel	684793815987691520	2016-01-06T17:49:03	Where men cannot freely convey their thoughts to one another, no other liberty is secure.  – William E. Hocking
JohnStossel	684769913593004033	2016-01-06T16:14:04	Don’t trust polls. Betting odds at  are the best predictor of who will win any election: 
JohnStossel	684446293704359937	2016-01-05T18:48:07	A censor is a man who knows more than he thinks you ought to. – Granville Hicks
JohnStossel	684129232855908352	2016-01-04T21:48:14	One's right to...free speech, a free press, freedom of worship and assembly…may not be submitted to vote... – Robert H. Jackson
JohnStossel	683778379863068672	2016-01-03T22:34:04	North Korean escapee Yeonmi Park tells the story of how she escaped "the worst place on earth" in tonight's show "Playing the Victim" @ 7PM.
JohnStossel	683733826401484800	2016-01-03T19:37:02	My show "Heroes of Freedom" airs tonight at 6 and 11pm on FoxBusiness. "Playing the Victim" airs at 7pm.
JohnStossel	683415238276808704	2016-01-02T22:31:04	Government is like a control freak “friend” who wants to manipulate all aspects of your life. It's time to break up! More tonight at 7pm.
JohnStossel	683373467958288386	2016-01-02T19:45:05	I go behind the scenes to show what goes into “Winning the Presidency” tonight at 6pm on FoxBusiness.
JohnStossel	683370936712577024	2016-01-02T19:35:02	Liberty is always dangerous, but it is the safest thing we have.  – Harry Emerson Fosdick
JohnStossel	682992707879370752	2016-01-01T18:32:05	As a New Year’s gift, I give you the best way to track the presidential election: . Better than polls and pundits.
JohnStossel	682989500444704769	2016-01-01T18:19:20	No one can read our Constitution without concluding that the people who wrote it wanted their government severely limited…  –Edmund A. Opitz
JohnStossel	682692733052424193	2015-12-31T22:40:06	What should America do about Islamic terrorism? My panel and I debate tonight at 6pm on FoxBusiness. Stossel2015
JohnStossel	682645908576579590	2015-12-31T19:34:02	Politicians continue to chip away at our freedom. "Threats to Liberty" airs tonight at 5pm on FoxBusiness.
JohnStossel	682612442963156994	2015-12-31T17:21:03	It is not the responsibility of the government or the legal system to protect a citizen from himself.  – Justice Casey Percell
JohnStossel	682601661831892993	2015-12-31T16:38:12	There may have been terrorism, crimes, storms, and Hillary Clinton, but 2015 was also full of good news. 
JohnStossel	682263650745225217	2015-12-30T18:15:04	Every decent man is ashamed of the government he lives under.  – H.L. Mencken
JohnStossel	682260628656947202	2015-12-30T18:03:04	My liberty-loving panel: kmanguward, danieljmitchell, &amp; deneenborelli, shares their hopes for 2016. 
JohnStossel	681895482801586176	2015-12-29T17:52:06	Liberty lies in the hearts of men and women. When it dies there, no constitution, no law, no court can save it.  – Judge Learned Hand
JohnStossel	681525775317614593	2015-12-28T17:23:01	Whatever freedoms the people still might have as their own, are monitored and registered and taxed at virtually every turn.  – Jeff Baxter
JohnStossel	681243417184047104	2015-12-27T22:41:02	We're drowning in rules! The little guys get hurt the worst. "War on the Little Guy" airs tonight at 7PM on FoxBusiness.
JohnStossel	681195621269639168	2015-12-27T19:31:06	Life works better when people are allowed to act spontaneously. “No Plan, No Problem” airs tonight at 6 &amp; 11PM on FoxBusiness.
JohnStossel	681173971866263552	2015-12-27T18:05:05	One of the greatest delusions in the world is the hope that the evils in this world are to be cured by legislation.  – Thomas B. Reed
JohnStossel	680881035727405056	2015-12-26T22:41:03	My "Best of 2015" show airs tonight at 6pm followed by "Let Us Experiment" at 7pm on FoxBusiness. Stossel2015
JohnStossel	680876163263270912	2015-12-26T22:21:42	If you are not free to choose wrongly and irresponsibly, you are not free at all.  – Jacob Hornberger
JohnStossel	680833481383874560	2015-12-26T19:32:05	As 2015 ends, it's time to look back at the stupid and destructive things politicians did. "Best of 2015" airs tonight @ 6pm on FoxBusiness
JohnStossel	680577597885923328	2015-12-26T02:35:18	TheVolleybalGod and Merry Christmas to you, and volleyballers everywhere!
JohnStossel	680073225041084416	2015-12-24T17:11:06	The American people are becoming more and more afraid of, and are running away from, their own revolution.  – Leonard E. Read
JohnStossel	679712327856308225	2015-12-23T17:17:02	For those looking for security, be forewarned that there's nothing more insecure than a political promise.  – Harry Browne
JohnStossel	679710812940955652	2015-12-23T17:11:00	The Constitution was written to limit political authority. Today's politicians seem to have few limits. 
JohnStossel	679355986675564544	2015-12-22T17:41:03	WEB EXCLUSIVE: My panel debates the candidates' tax and fiscal plans.  Stossel2015
JohnStossel	679351467778576384	2015-12-22T17:23:06	This and no other is the root from which a tyrant springs; when he first appears above ground he is a protector.  – Plato
JohnStossel	678990583742906368	2015-12-21T17:29:04	The government solution to a problem is usually as bad as the problem.  – Milton Friedman
JohnStossel	678630459698319360	2015-12-20T17:38:04	Abuse of power isn't limited to bad guys in other nations. It happens in our own country if we're not vigilant.  – Clint Eastwood
JohnStossel	678367979319365632	2015-12-20T00:15:04	Tonight, my special "Censored in America" re-airs at 9pm on FoxBusiness. "Money, Money, Money" follows at 10pm.
JohnStossel	678326485774557184	2015-12-19T21:30:11	Guns and Pop-Tarts threaten schools. tomshillue tries to explain at 8 and 11pm on FoxBusiness.
JohnStossel	678281204165042176	2015-12-19T18:30:15	It’s another STOSSEL Saturday on FBN. "Self-Defenseless" airs at 8 &amp; 11pm, "Censored in America" at 9pm and "Money, Money, Money" at 10pm.
JohnStossel	678005605634670593	2015-12-19T00:15:07	Trump &amp; Clinton lead the polls, but polls don't predict squat. This  does! Stossel2015 starts at 8pm on FoxBusiness
JohnStossel	677977961535008769	2015-12-18T22:25:16	Tonight at 8 on FoxBusiness, I'll address (but not solve) the major problems of the year STOSSEL Stossel2015 
